objective value:                                   -3
t_n_22                                              1 	(obj:-1)
t_n_568                                             1 	(obj:-1)
t_n_1280                                            1 	(obj:-1)
